\ Model idol-model
\ LP format - for model browsing. Use MPS format to capture full model detail.
\ Signature: 0xc168e2f94b36bec7
Minimize
  560 y0 + 1125 y1 + 68 y2 + 47 y3 + 122 y4 + 196 y5 + 41 y6 + 25 y7
   + 115 y8 + 82 y9 + 22 y10 + 631 y11 + 132 y12 + 420 y13 + 86 y14
   + 42 y15 + 103 y16 + 81 y17 + 26 y18 + 49 y19 + 316 y20 + 72 y21
   + 71 y22 + 49 y23 + 108 y24 + 116 y25 + 90 y26
Subject To
 KL0: 40 x0 + 91 x1 + 3 x2 + 3 x3 + 18 x4 + 25 x5 + x6 + x7 + 8 x8 + x9
   + x10 + 49 x11 + 8 x12 + 21 x13 + 6 x14 + x15 + 5 x16 + 8 x17 + x18
   + 42 x20 + 6 x21 + 4 x22 + 8 x23 + 10 x25 + x26 <= 207
 KL1: 16 x0 + 92 x1 + 4 x2 + 6 x3 + 8 x5 + 2 x6 + x7 + 6 x8 + 2 x9 + x10
   + 70 x11 + 9 x12 + 22 x13 + 4 x14 + x15 + 5 x16 + 6 x17 + 4 x19 + 8 x20
   + 4 x21 + 3 x22 + 10 x24 + 6 x26 <= 185
 KF0: 38 y0 + 39 y1 + 5 y2 + 8 y3 + 12 y4 + 15 y5 + y7 + 20 y8 + 3 y9
   + 40 y11 + 6 y12 + 8 y13 + 6 y15 + 4 y16 + 4 y17 + y18 + 5 y19 + 8 y20
   + 2 y21 + 8 y22 + 20 y24 <= 168
 KF1: 38 y0 + 52 y1 + 7 y2 + 3 y4 + 4 y5 + y6 + 2 y7 + 4 y8 + 6 y9 + y10
   + 18 y11 + 15 y12 + 38 y13 + 10 y14 + 4 y15 + 8 y16 + 3 y18 + 6 y20
   + y21 + 3 y22 + 3 y24 + 5 y25 + 4 y26 <= 160
 I0: x0 + y0 <= 1
 I1: x1 + y1 <= 1
 I2: x2 + y2 <= 1
 I3: x3 + y3 <= 1
 I4: x4 + y4 <= 1
 I5: x5 + y5 <= 1
 I6: x6 + y6 <= 1
 I7: x7 + y7 <= 1
 I8: x8 + y8 <= 1
 I9: x9 + y9 <= 1
 I10: x10 + y10 <= 1
 I11: x11 + y11 <= 1
 I12: x12 + y12 <= 1
 I13: x13 + y13 <= 1
 I14: x14 + y14 <= 1
 I15: x15 + y15 <= 1
 I16: x16 + y16 <= 1
 I17: x17 + y17 <= 1
 I18: x18 + y18 <= 1
 I19: x19 + y19 <= 1
 I20: x20 + y20 <= 1
 I21: x21 + y21 <= 1
 I22: x22 + y22 <= 1
 I23: x23 + y23 <= 1
 I24: x24 + y24 <= 1
 I25: x25 + y25 <= 1
 I26: x26 + y26 <= 1
 c_112: - 560 y0 - 1125 y1 - 68 y2 - 47 y3 - 122 y4 - 196 y5 - 41 y6
   - 25 y7 - 115 y8 - 82 y9 - 22 y10 - 631 y11 - 132 y12 - 420 y13 - 86 y14
   - 42 y15 - 103 y16 - 81 y17 - 26 y18 - 49 y19 - 316 y20 - 72 y21
   - 71 y22 - 49 y23 - 108 y24 - 116 y25 - 90 y26 <= 0
Bounds
Binaries
 x0 x1 x2 x3 x4 x5 x6 x7 x8 x9 x10 x11 x12 x13 x14 x15 x16 x17 x18 x19 x20
 x21 x22 x23 x24 x25 x26 y0 y1 y2 y3 y4 y5 y6 y7 y8 y9 y10 y11 y12 y13 y14
 y15 y16 y17 y18 y19 y20 y21 y22 y23 y24 y25 y26
End
